words_easy_train/words_747_SAT.qaiger
aag 55 16 0 1 39
26
6
22
24
28
4
10
18
8
14
12
16
30
32
2
20
111
34 21 19
36 34 23
38 35 22
40 39 37
42 40 14
44 20 18
46 45 35
48 46 12
50 18 10
52 47 13
54 53 49
56 54 50
58 57 49
60 41 15
62 61 43
64 62 59
66 65 43
68 25 17
70 24 16
72 71 69
74 73 36
76 72 37
78 77 75
80 79 66
82 78 67
84 83 81
86 55 51
88 87 57
90 19 11
92 91 51
94 9 7
96 94 93
98 63 58
100 99 97
102 100 88
104 102 65
106 105 84
108 104 85
110 109 107
i0 1 x2[4]
i1 2 y2[2]
i2 1 x2[2]
i3 1 x2[3]
i4 1 x2[5]
i5 2 y2[1]
i6 2 y2[4]
i7 1 x2[0]
i8 2 y2[3]
i9 2 y2[6]
i10 2 y2[5]
i11 2 y2[7]
i12 1 x2[6]
i13 1 x2[7]
i14 2 y2[0]
i15 1 x2[1]
o0 bv[0]
c
simplified
  >
    subtract
      2 y2
      << 4
        1 x2
    99
