words_easy_train/words_747_SAT.qaiger.qdimacs
p cnf 55 118
a 9 10 11 12 13 14 15 16 0
e 1 2 3 4 5 6 7 8 17 18 19 20 21 22 23 24 25 26 27 28 29 30 31 32 33 34 35 36 37 38 39 40 41 42 43 44 45 46 47 48 49 50 51 52 53 54 55 0
10 9 17 0
-10 -17 0
-9 -17 0
-17 11 18 0
17 -18 0
-11 -18 0
17 -11 19 0
-17 -19 0
11 -19 0
19 18 20 0
-19 -20 0
-18 -20 0
-20 -7 21 0
20 -21 0
7 -21 0
-10 -9 22 0
10 -22 0
9 -22 0
22 17 23 0
-22 -23 0
-17 -23 0
-23 -6 24 0
23 -24 0
6 -24 0
-9 -5 25 0
9 -25 0
5 -25 0
23 6 26 0
-23 -26 0
-6 -26 0
26 24 27 0
-26 -27 0
-24 -27 0
-27 -25 28 0
27 -28 0
25 -28 0
28 24 29 0
-28 -29 0
-24 -29 0
20 7 30 0
-20 -30 0
-7 -30 0
30 21 31 0
-30 -31 0
-21 -31 0
-31 29 32 0
31 -32 0
-29 -32 0
32 21 33 0
-32 -33 0
-21 -33 0
12 8 34 0
-12 -34 0
-8 -34 0
-12 -8 35 0
12 -35 0
8 -35 0
35 34 36 0
-35 -36 0
-34 -36 0
36 -18 37 0
-36 -37 0
18 -37 0
-36 18 38 0
36 -38 0
-18 -38 0
38 37 39 0
-38 -39 0
-37 -39 0
39 -33 40 0
-39 -40 0
33 -40 0
-39 33 41 0
39 -41 0
-33 -41 0
41 40 42 0
-41 -42 0
-40 -42 0
27 25 43 0
-27 -43 0
-25 -43 0
43 28 44 0
-43 -44 0
-28 -44 0
9 5 45 0
-9 -45 0
-5 -45 0
45 25 46 0
-45 -46 0
-25 -46 0
4 3 47 0
-4 -47 0
-3 -47 0
-47 46 48 0
47 -48 0
-46 -48 0
31 -29 49 0
-31 -49 0
29 -49 0
49 48 50 0
-49 -50 0
-48 -50 0
-50 -44 51 0
50 -51 0
44 -51 0
-51 32 52 0
51 -52 0
-32 -52 0
52 -42 53 0
-52 -53 0
42 -53 0
-52 42 54 0
52 -54 0
-42 -54 0
54 53 55 0
-54 -55 0
-53 -55 0
-55 0
